c --- [ banner ] -------------------------------------------------------------
c 
c CaDiCaL Radically Simplified CDCL SAT Solver
c Copyright (c) 2016-2021 A. Biere, M. Fleury, N. Froleyks
c 
c Version 1.5.2 a5f15211db36c3956764e18194dd5bd63bf3b5e6
c g++ (GCC) 9.3.0 -Wall -Wextra -O3 -DNDEBUG
c Fri Oct 21 01:27:37 EDT 2022 Linux gra-login3 3.10.0-1160.66.1.el7.x86_64 x86_64
c 
c --- [ limit ] --------------------------------------------------------------
c 
c setting conflict limit to 200000 conflicts (due to '200000')
c 
c --- [ parsing input ] ------------------------------------------------------
c 
c reading DIMACS file from '33.cubes2710.adj'
c opening file to read '33.cubes2710.adj'
c found 'p cnf 6160 1595479' header
c parsed 1595479 clauses in 19.79 seconds process time
c closing file '33.cubes2710.adj'
c after reading 1457566802 bytes 1390.0 MB
c 
c --- [ options ] ------------------------------------------------------------
c 
c all options are set to their default value
c 
c --- [ solving ] ------------------------------------------------------------
c 
c time measured in process time since initialization
c 
c  seconds    reductions  redundant   irredundant
c          MB     restarts       trail       variables
c            level   conflicts       glue         remaining
c 
c * 19.79 1379  0 0   0    0    0  0% 0 1595422 2323 38%
c { 20.76 1423  0 0   0    0    0  0% 0 1595422 2323 38%
c i 22.78 1477 505 0   5   29   27 33% 17 1595422 2322 38%
c i 23.42 1488 373 0   6   41   36 31% 17 1595422 2321 38%
c i 23.91 1494 296 0   8   55   49 31% 19 1595422 2320 38%
c i 24.68 1503 248 0  10   74   61 30% 23 1595422 2311 38%
c i 25.90 1509 186 0  18  127   97 29% 29 1595422 2302 37%
c i 27.12 1515 139 0  31  217  181 29% 32 1595422 2301 37%
c i 27.18 1515 137 0  33  221  184 29% 32 1595422 2300 37%
c i 27.22 1515 137 0  34  225  187 29% 33 1595422 2299 37%
c i 27.37 1516 136 0  36  235  196 29% 33 1595422 2298 37%
c i 27.56 1517 135 0  38  239  199 29% 34 1595422 2297 37%
c i 27.59 1517 133 0  38  242  201 29% 34 1595422 2296 37%
c i 27.61 1517 132 0  39  244  202 29% 33 1595422 2295 37%
c i 28.08 1519 128 0  50  290  242 29% 39 1595422 2294 37%
c - 31.86 1444 125 1  54  300  250 29% 39 282440 2294 37%
c i 32.04 1355 125 1  54  311  259 29% 41 282440 2292 37%
c i 32.41 1355 124 1  60  331  278 29% 41 282440 2291 37%
c i 32.67 1355 125 1  65  350  295 29% 43 282440 2290 37%
c i 32.90 1355 124 1  69  366  310 29% 42 282440 2289 37%
c 
c  seconds     reductions  redundant   irredundant
c          MB      restarts       trail       variables
c             level   conflicts       glue         remaining
c 
c i 32.99 1355 123 1  70  372  315 29% 42 282440 2288 37%
c i 33.08 1355 121 1  70  378  320 29% 42 282440 2287 37%
c i 33.20 1355 118 1  70  396  332 29% 41 282440 2286 37%
c i 33.29 1355 114 1  70  416  349 29% 40 282440 2285 37%
c i 33.32 1355 113 1  70  421  352 29% 40 282440 2284 37%
c i 33.34 1355 111 1  70  428  357 29% 39 282440 2283 37%
c i 33.70 1355 97 1  70  526  445 28% 36 282440 2282 37%
c i 33.74 1355 95 1  70  542  460 28% 36 282440 2281 37%
c i 33.76 1355 92 1  70  563  477 28% 35 282440 2280 37%
c i 33.78 1355 89 1  70  588  498 28% 34 282440 2279 37%
c i 33.81 1355 88 1  70  597  505 28% 34 282440 2278 37%
c i 33.83 1355 87 1  70  603  510 28% 34 282440 2277 37%
c i 33.96 1355 85 1  70  643  542 29% 33 282440 2276 37%
c i 33.99 1355 83 1  70  664  556 29% 33 282440 2275 37%
c i 34.10 1355 81 1  70  703  583 29% 33 282440 2274 37%
c i 34.11 1355 80 1  70  716  595 29% 33 282440 2273 37%
c i 34.15 1355 80 1  70  724  600 29% 33 282440 2272 37%
c i 34.25 1355 79 1  80  767  632 29% 34 282440 2271 37%
c i 34.27 1355 77 1  81  791  640 29% 34 282440 2270 37%
c i 34.28 1355 77 1  81  794  642 29% 34 282440 2269 37%
c 
c  seconds    reductions  redundant   irredundant
c          MB     restarts       trail       variables
c            level   conflicts       glue         remaining
c 
c i 34.59 1355 73 1  91  924  750 29% 34 282440 2268 37%
c i 34.60 1355 72 1  91  950  762 29% 33 282440 2267 37%
c i 34.70 1356 71 1  91  964  770 29% 33 282440 2266 37%
c } 35.13 1356 72 1  93 1002  806 29% 34 282440 2266 37%
c [ 35.13 1356  0 1  93 1002  806  0% 0 282440 2266 37%
c O 35.13 1356  1 1  93 1003  806 13% 0 282440 2266 37%
c i 35.13 1356  1 1  93 1003  806 13% 0 282440 2251 37%
c i 35.42 1356 17 1  93 1038  832 25% 10 282440 2250 37%
c i 35.46 1356 19 1  93 1053  840 27% 12 282440 2249 37%
c i 35.48 1356 20 1  93 1069  851 28% 14 282440 2248 36%
c i 35.50 1356 19 1  93 1076  856 28% 15 282440 2247 36%
c i 35.51 1356 20 1  93 1085  861 29% 15 282440 2246 36%
c i 35.56 1356 18 1  93 1135  893 30% 15 282440 2245 36%
c i 35.57 1356 18 1  93 1136  893 30% 14 282440 2244 36%
c i 35.57 1356 18 1  93 1137  893 30% 14 282440 2243 36%
c i 35.59 1356 18 1  93 1158  908 30% 14 282440 2242 36%
c i 35.59 1356 18 1  93 1159  908 30% 14 282440 2241 36%
c - 36.21 1474 17 2  93 1170  777 31% 14 282085 2241 36%
c i 36.42 1474 17 2  93 1248  823 31% 14 282085 2240 36%
c i 36.42 1474 16 2  93 1254  827 31% 14 282085 2239 36%
c 
c  seconds    reductions  redundant   irredundant
c          MB     restarts       trail       variables
c            level   conflicts       glue         remaining
c 
c i 36.42 1474 16 2  93 1255  827 31% 14 282085 2238 36%
c i 36.43 1474 16 2  93 1274  837 31% 13 282085 2237 36%
c i 36.44 1474 16 2  93 1285  847 31% 14 282085 2236 36%
c i 36.45 1474 17 2  93 1301  859 31% 14 282085 2235 36%
c i 36.48 1474 17 2  93 1356  890 31% 14 282085 2234 36%
c i 36.50 1474 17 2  93 1405  922 32% 14 282085 2233 36%
c i 36.51 1474 17 2  93 1416  926 32% 14 282085 2232 36%
c i 36.54 1474 17 2  93 1491  975 32% 14 282085 2231 36%
c i 36.54 1474 16 2  93 1492  975 32% 14 282085 2230 36%
c i 36.54 1474 16 2  93 1496  977 32% 14 282085 2229 36%
c i 36.58 1474 16 2  93 1550 1010 32% 14 282085 2228 36%
c i 36.62 1474 16 2  93 1622 1061 32% 14 282085 2227 36%
c i 36.64 1474 16 2  93 1681 1101 32% 14 282085 2226 36%
c i 36.64 1474 16 2  93 1686 1105 32% 14 282085 2225 36%
c i 36.78 1474 16 2  93 2020 1340 32% 14 282085 2222 36%
c i 36.83 1474 16 2  94 2148 1420 33% 13 282085 2221 36%
c i 36.84 1474 16 2  94 2156 1423 32% 13 282085 2220 36%
c i 36.85 1474 16 2  94 2173 1436 32% 13 282085 2219 36%
c i 36.86 1474 15 2  94 2188 1439 32% 13 282085 2218 36%
c i 36.90 1474 15 2  94 2284 1504 32% 13 282085 2217 36%
c 
c  seconds    reductions  redundant   irredundant
c          MB     restarts       trail       variables
c            level   conflicts       glue         remaining
c 
c i 36.94 1474 16 2  94 2374 1558 32% 14 282085 2216 36%
c - 37.37 1470 16 3  94 2476 1185 32% 14 282014 2216 36%
c ] 37.87 1470 16 3  94 2691 1308 52% 14 282014 2216 36%
c 1 37.87 1470 16 3  94 2691 1308 52% 14 282014 2216 36%
c 
c --- [ writing output ] -----------------------------------------------------
c 
c writing simplified CNF to DIMACS file 'simp/33.cubes2710.adj.simp1'
c * 37.87 1470 16 3  94 2691 1308 52% 14 282014 2216 36%
c opening file to write 'simp/33.cubes2710.adj.simp1'
c writing 'p cnf 6160 282014' header
c closing file 'simp/33.cubes2710.adj.simp1'
c after writing 131631636 bytes 125.5 MB
c wrote 282014 clauses in 0.91 seconds process time
c 
c --- [ writing extension ] --------------------------------------------------
c 
c writing extension stack to 'simp/33.cubes2710.adj.ext1'
c opening file to write 'simp/33.cubes2710.adj.ext1'
c closing file 'simp/33.cubes2710.adj.ext1'
c after writing 11826 bytes 0.0 MB
c wrote 800 witnesses in 0.00 seconds process time
c 
c --- [ result ] -------------------------------------------------------------
c 
s SATISFIABLE
c 
c --- [ run-time profiling ] -------------------------------------------------
c 
c process time taken by individual solving procedures
c (percentage relative to process time for solving)
c 
c        19.79  109.40% parse
c        18.09  100.00% search
c        14.37   79.47% unstable
c         2.74   15.17% stable
c         0.97    5.36% lucky
c         0.00    0.00% simplify
c   =================================
c        18.09   46.63% solve
c 
c last line shows process time for solving
c (percentage relative to total process time)
c 
c --- [ statistics ] ---------------------------------------------------------
c 
c chronological:               627        23.30 %  of conflicts
c conflicts:                  2691       148.78    per second
c decisions:                 14417       797.10    per second
c fixed:                       800        12.99 %  of all variables
c learned:                    2614        97.14 %  per conflict
c learned_lits:             539556       100.00 %  learned literals
c minimized:                     0         0.00 %  learned literals
c shrunken:                 287515        53.29 %  learned literals
c minishrunken:              57927        10.74 %  learned literals
c propagations:             410934         0.02 M  per second
c reduced:                     565        21.00 %  per conflict
c rephased:                      1      2691.00    interval
c restarts:                     94        28.63    interval
c stabilizing:                   1        62.76 %  of conflicts
c subsumed:                    665         0.02 %  of all clauses
c 
c seconds are measured in process time for solving
c 
c --- [ resources ] ----------------------------------------------------------
c 
c total process time since initialization:        38.79    seconds
c total real time since initialization:           43.77    seconds
c maximum resident set size of process:         1587.53    MB
c 
c --- [ shutting down ] ------------------------------------------------------
c 
c exit 10
WARNING! DIMACS header mismatch: wrong number of variables.
============================[ Problem Statistics ]=============================
|                                                                             |
|  Number of variables:          6120                                         |
|  Number of clauses:          282014                                         |
|  Parse time:                   1.76 s                                       |
|  Simplification time:          0.03 s                                       |
|                                                                             |
============================[ Search Statistics ]====================================================
| Conflicts |          ORIGINAL         |          LEARNT          | Num Sols |      SUBGRAPHS      |
|           |    Vars  Clauses Literals |    Limit  Clauses Lit/Cl |          | Canonical Noncanon. |
=====================================================================================================
|       101 |    6024   282015 28401544 |     2000      100    146 |        0 |        15         1 |
|       251 |    6024   282015 28401544 |     2000      250    127 |        0 |        28         1 |
|       480 |    6021   282019 28401675 |     2000      476    105 |        0 |        40         5 |
|       931 |    6018   282133 28403484 |     2000      924     95 |        0 |        85       119 |
|      1443 |    6017   282139 28403698 |     2000     1435    104 |        0 |        88       125 |
|      2309 |    6016   282246 28405785 |     3597     1305     68 |        0 |       129       232 |
|      4459 |    6013   283257 28420984 |     3597     3452     61 |        0 |       344      1243 |
|      6482 |    6011   283572 28426288 |     4998     3679     55 |        0 |       427      1558 |
|     10362 |    6011   284890 28442287 |     6305     5067     36 |        0 |       726      2876 |
|     14510 |    6010   285194 28447582 |     7553     6063     55 |        0 |       816      3180 |
|     20354 |    6010   285272 28448759 |     8781     8135     60 |        0 |       872      3258 |
|     29246 |    6010   285515 28453050 |    11202     7648     49 |        0 |       940      3501 |
|     42324 |    6010   285619 28455023 |    13604     8928     51 |        0 |      1000      3605 |
|     61940 |    6010   285774 28458823 |    15998    14338     65 |        0 |      1099      3760 |
|     91809 |    6008   286451 28472847 |    19608    18416     72 |        0 |      1346      4437 |
|    136406 |    6007   287259 28486301 |    24405    20211     63 |        0 |      1678      5245 |
|    202451 |    6007   287620 28493359 |    30422    19273     56 |        0 |      1860      5606 |
|    301172 |    6007   287761 28497926 |    36403    35975     73 |        0 |      2012      5801 |
|    449889 |    6006   288689 28517338 |    44816    44705     79 |        0 |      2440      6729 |
|    672528 |    6006   289642 28537708 |    55618    44146     68 |        0 |      3003      7685 |
|   1008908 |    6005   293494 28595542 |    68815    41723     47 |        0 |      4238     11540 |
|   1509422 |    6001   294806 28625787 |    84400    48222     47 |        1 |      4892     13265 |
|   2259758 |    6001   296960 28684906 |   103615    51373     34 |        2 |      6182     15418 |
=====================================================================================================
Number of solutions   : 2
Canonical subgraphs   : 6641           (12 /sec)
          order  3    : 1              (166667 /sec)
          order  4    : 1              (500000 /sec)
          order  5    : 1              (200000 /sec)
          order  6    : 1              (52632 /sec)
          order  7    : 1              (7813 /sec)
          order  8    : 2              (1382 /sec)
          order  9    : 6              (315 /sec)
          order 10    : 15             (68 /sec)
          order 11    : 58             (17 /sec)
          order 12    : 290            (14 /sec)
          order 13    : 487            (13 /sec)
          order 14    : 655            (18 /sec)
          order 15    : 619            (15 /sec)
          order 16    : 2124           (11 /sec)
          order 17    : 1355           (10 /sec)
          order 18    : 635            (9 /sec)
          order 19    : 134            (12 /sec)
          order 20    : 124            (12 /sec)
          order 21    : 130            (12 /sec)
          order 22    : 2              (1 /sec)
Noncanonical subgraphs: 16569          (173 /sec)
          order  3    : 0              (-nan /sec)
          order  4    : 0              (-nan /sec)
          order  5    : 0              (-nan /sec)
          order  6    : 0              (-nan /sec)
          order  7    : 0              (-nan /sec)
          order  8    : 0              (-nan /sec)
          order  9    : 0              (-nan /sec)
          order 10    : 0              (-nan /sec)
          order 11    : 0              (-nan /sec)
          order 12    : 0              (-nan /sec)
          order 13    : 1582           (5311 /sec)
          order 14    : 6615           (742 /sec)
          order 15    : 817            (1189 /sec)
          order 16    : 2252           (486 /sec)
          order 17    : 5057           (77 /sec)
          order 18    : 88             (31 /sec)
          order 19    : 4              (78 /sec)
          order 20    : 0              (-nan /sec)
          order 21    : 0              (-nan /sec)
Canonicity checking   : 565.289 s
Noncanonicity checking: 95.6987 s
Total canonicity time : 660.987 s
database reductions   : 93
restarts              : 4837
conflicts             : 2766746        (1387 /sec)
decisions             : 3409163        (0.00 % random) (1710 /sec)
propagations          : 309836764      (155370 /sec)
conflict literals     : 291753665      (56.94 % deleted)
actual reward         : 0.115959
Memory used           : 383.00 MB
CPU time              : 1994.19 s

UNSATISFIABLE
